
******************************************************************************
This program contains Ipopt, a library for large-scale nonlinear optimization.
 Ipopt is released as open source code under the Eclipse Public License (EPL).
         For more information visit http://projects.coin-or.org/Ipopt
******************************************************************************

This is Ipopt version 3.12.6, running with linear solver ma57.

Number of nonzeros in equality constraint Jacobian...:        0
Number of nonzeros in inequality constraint Jacobian.:       12
Number of nonzeros in Lagrangian Hessian.............:        4

Total number of variables............................:        4
                     variables with only lower bounds:        0
                variables with lower and upper bounds:        0
                     variables with only upper bounds:        0
Total number of equality constraints.................:        0
Total number of inequality constraints...............:        3
        inequality constraints with only lower bounds:        3
   inequality constraints with lower and upper bounds:        0
        inequality constraints with only upper bounds:        0

iter    objective    inf_pr   inf_du lg(mu)  ||d||  lg(rg) alpha_du alpha_pr  ls
   0  0.0000000e+00 0.00e+00 1.31e+01  -1.0 0.00e+00    -  0.00e+00 0.00e+00   0
   1 -3.2386414e+01 0.00e+00 1.38e+01  -1.0 1.91e+00    -  9.79e-01 1.00e+00f  1
   2 -4.9764857e+01 2.74e+00 7.98e+00  -1.0 1.61e+01    -  1.00e+00 3.81e-01f  1
   3 -4.8045750e+01 1.56e+00 3.58e+00  -1.0 4.17e+00    -  1.00e+00 5.52e-01h  1
   4 -4.4094239e+01 5.30e-02 5.23e-01  -1.0 4.75e-01    -  1.00e+00 1.00e+00h  1
   5 -4.3971024e+01 0.00e+00 8.83e-03  -1.7 2.25e-01    -  1.00e+00 1.00e+00h  1
   6 -4.4000082e+01 2.27e-04 8.85e-04  -3.8 8.06e-02    -  1.00e+00 9.73e-01h  1
   7 -4.3999702e+01 0.00e+00 7.97e-06  -3.8 3.62e-03    -  1.00e+00 1.00e+00h  1
   8 -4.3999996e+01 0.00e+00 2.84e-08  -5.7 4.40e-04    -  1.00e+00 1.00e+00h  1
   9 -4.4000000e+01 0.00e+00 4.31e-12  -8.6 5.27e-06    -  1.00e+00 1.00e+00h  1

Number of Iterations....: 9

                                   (scaled)                 (unscaled)
Objective...............:  -4.4000000024994407e+01   -4.4000000024994407e+01
Dual infeasibility......:   4.3085535139653075e-12    4.3085535139653075e-12
Constraint violation....:   0.0000000000000000e+00    0.0000000000000000e+00
Complementarity.........:   2.5159811911118978e-09    2.5159811911118978e-09
Overall NLP error.......:   2.5159811911118978e-09    2.5159811911118978e-09


Number of objective function evaluations             = 10
Number of objective gradient evaluations             = 10
Number of equality constraint evaluations            = 0
Number of inequality constraint evaluations          = 10
Number of equality constraint Jacobian evaluations   = 0
Number of inequality constraint Jacobian evaluations = 10
Number of Lagrangian Hessian evaluations             = 9
Total CPU secs in IPOPT (w/o function evaluations)   =      0.010
Total CPU secs in NLP function evaluations           =      0.000

EXIT: Optimal Solution Found.

************************ CUTEst statistics ************************


 Package used            :  IPOPT
 Problem                 :  HS43      
 # variables             =               4
 # constraints           =               3
 # objective functions   =        0.2100000E+02
 # objective gradients   =        0.1100000E+02
 # objective Hessians    =        0.1000000E+02
 # Hessian-vector prdct  =        0.0000000E+00
 # constraints functions =        0.2200000E+02
 # constraints gradients =        0.1200000E+02
 # constraints Hessians  =        0.1000000E+02
 Exit code               =               0
 Final f                 =  -0.4400000E+02
 Set up time             =            0.00 seconds
 Solve time              =            0.02 seconds


******************************************************************

System Time =       0.0040000002 s.
